NAME : sample_60
COMMENT : Sample TSP instance with 60 cities
TYPE : TSP
DIMENSION : 60
EDGE_WEIGHT_TYPE : EUC_2D
NODE_COORD_SECTION
1 431 391
2 225 219
3 505 359
4 283 520
5 570 35
6 7 160
7 226 377
8 60 190
9 595 595
10 274 142
11 770 999
12 152 182
13 534 750
14 16 291
15 145 708
16 635 777
17 198 212
18 624 870
19 18 193
20 415 977
21 641 575
22 78 58
23 106 891
24 678 375
25 365 471
26 466 632
27 417 198
28 998 397
29 370 856
30 358 829
31 683 437
32 306 310
33 314 681
34 557 567
35 44 299
36 134 742
37 145 303
38 689 175
39 670 638
40 770 758
41 710 594
42 245 189
43 618 770
44 12 821
45 160 201
46 475 832
47 946 596
48 141 535
49 611 95
50 352 822
51 671 784
52 491 900
53 566 976
54 675 17
55 508 620
56 339 356
57 30 155
58 263 746
59 732 505
60 947 461
EOF
